06/07/2015 09:22:09 AM /
File :  IP:::1 Not connect DB: host: localhost, User : root
14/07/2015 04:47:46 AM /admin/
File :  IP:::1 Not connect DB: host: localhost, User : root
14/07/2015 04:48:00 AM /admin/
File :  IP:::1 Not connect DB: host: localhost, User : root
14/07/2015 04:48:10 AM /admin/
File :  IP:::1 Not connect DB: host: localhost, User : root
14/07/2015 04:48:23 AM /admin/
File :  IP:::1 Not connect DB: host: localhost, User : root
14/07/2015 04:48:27 AM /admin/
File :  IP:::1 Not connect DB: host: localhost, User : root
14/07/2015 04:48:37 AM /admin/
File :  IP:::1 Not connect DB: host: localhost, User : root
14/07/2015 04:48:39 AM /admin/
File :  IP:::1 Not connect DB: host: localhost, User : root
04/08/2015 10:17:34 AM /
File :  IP:::1 Not connect DB: host: localhost, User : root
